
Gurobi 7.0.2 (linux64, Python) logging started Wed Aug  9 00:35:59 2017


Gurobi 7.0.2 (linux64, Python) logging started Wed Aug  9 00:37:02 2017


Gurobi 7.0.2 (linux64, Python) logging started Wed Aug  9 00:38:28 2017


Gurobi 7.0.2 (linux64, Python) logging started Wed Aug  9 00:39:18 2017


Gurobi 7.0.2 (linux64, Python) logging started Wed Aug  9 00:40:40 2017


Gurobi 7.0.2 (linux64, Python) logging started Wed Aug  9 00:41:31 2017


Gurobi 7.0.2 (linux64, Python) logging started Wed Aug  9 00:42:59 2017


Gurobi 7.0.2 (linux64, Python) logging started Wed Aug  9 00:43:47 2017


Gurobi 7.0.2 (linux64, Python) logging started Wed Aug  9 00:45:13 2017


Gurobi 7.0.2 (linux64, Python) logging started Wed Aug  9 00:52:59 2017


Gurobi 7.0.2 (linux64, Python) logging started Wed Aug  9 00:53:25 2017


Gurobi 7.0.2 (linux64, Python) logging started Wed Aug  9 00:53:27 2017

